============================[ Problem Statistics ]=============================
|                                                                             |
|  Number of variables:           221                                         |
|  Number of clauses:            1084                                         |
|  Parse time:                   0.01 s                                       |
|                                                                             |
============================[ Search Statistics ]==============================
| Conflicts |          ORIGINAL         |          LEARNT          | Progress |
|           |    Vars  Clauses Literals |    Limit  Clauses Lit/Cl |          |
===============================================================================
|       100 |     215     1079     2504 |      395      100     14 |  2.719 % |
|       250 |     215     1079     2504 |      435      250     12 |  2.723 % |
===============================================================================
restarts              : 4
conflicts             : 465            (15500 /sec)
decisions             : 560            (0.00 % random) (18667 /sec)
propagations          : 30196          (1006533 /sec)
conflict literals     : 4290           (26.33 % deleted)
CPU time              : 0.03 s

UNSATISFIABLE
UNSAT
ERROR: MiniSat process not found for FULL_RUN_MINISAT\09d7add3bf3b75c5d1023a92e752989a-Break_unsat_04_03.xml.cnf 
Finished MiniSat on FULL_RUN_MINISAT\09d7add3bf3b75c5d1023a92e752989a-Break_unsat_04_03.xml.cnf  